NAME: binpacking2d-10.bp2d
COMMENT: gcut10
NB_ITEMS: 20
BIN_WIDTH: 1000
BIN_HEIGHT: 1000

ITEMS [id width height]:
1 730 300
2 269 717
3 463 369
4 642 464
5 453 329
6 455 667
7 506 482
8 560 362
9 483 260
10 693 345
11 381 510
12 456 586
13 457 453
14 707 658
15 639 650
16 691 359
17 434 700
18 576 291
19 728 739
20 545 742